WARNING: for repeatability, setting FPU to use double precision
============================[ Problem Statistics ]=============================
|                                                                             |
|  Number of variables:        163418                                         |
|  Number of clauses:          970492                                         |
|  Parse time:                   0.27 s                                       |
|                                                                             |
c ============================[ Search Statistics ]==============================
c | Conflicts |          ORIGINAL         |          LEARNT          | Progress |
c |           |    Vars  Clauses Literals |    Limit  Clauses Lit/Cl |          |
c ===============================================================================
c Switched to VSIDS.
c Switched to LRB.
c Switched to VSIDS.
c Switched to LRB.
c Switched to VSIDS.
c Switched to LRB.
c Switched to VSIDS.
c Switched to LRB.
c Switched to VSIDS.
c Switched to LRB.
c Switched to VSIDS.
c Switched to LRB.
c Switched to VSIDS.
c Switched to LRB.
c Switched to VSIDS.
c Switched to LRB.
c Switched to VSIDS.
c Switched to LRB.
c Switched to VSIDS.
c Switched to LRB.
c ===============================================================================
restarts                  : 10435
conflicts                 : 2468932        (2728 /sec)
decisions                 : 349326804      (0.00 % random) (385967 /sec)
propagations              : 1918736359     (2119988 /sec)
conflict literals         : 46835504       (20.77 % deleted)

conflicts w/ DIP found    : 1506373        (61.01 % of conflicts)
conflicts w/ dangerous DIP: 0              (0.00 % of conflicts)
conflicts w/ DIP-learning : 23             (0.00 % of conflicts)
decisions on ext vars     : 174            (0.00 % of decisions)
total ext vars            : 6           
tried delete ext vars     : 0           
deleted ext vars          : 0           
max ext vars              : 6           

Memory used               : 449.00 MB
CPU time                  : 905.069 s
DIP computation time      : 15.3124 s (1.69 % of total time)
ER_sel time               : 2.29163 s
ER_add time               : 0.000165 s
ER_delC time              : 0 s
ER_delV time              : 0 s
ER_sub time               : 3.56889 s
ER_stat time              : 0 s

SATISFIABLE
